DATASET = "thpack4";
INSTANCE = "005";

WIDTH = 233;
HEIGHT = 220;
LENGTH = 587;

NO_OF_SHAPES = 10;
size = [|
  88,54,39 |
  94,54,36 |
  87,77,43 |
  100,80,72 |
  83,40,36 |
  91,54,22 |
  109,58,54 |
  94,55,30 |
  34,32,31 |
  83,80,57 |
|];

verticality = [|
  0,1,1 |
  0,1,1 |
  0,1,1 |
  1,1,1 |
  0,1,1 |
  0,0,1 |
  0,1,1 |
  0,1,1 |
  1,1,1 |
  1,1,1 |
|];

box_count = [
  12,
  12,
  17,
  15,
  18,
  7,
  10,
  13,
  18,
  8,
];
